NAME : cvrp-A-G-100-18.2427.tour
COMMENT : Length = 2427
COMMENT : Found by LKH [Keld Helsgaun] Thu May 17 22:42:31 2018
TYPE : TOUR
DIMENSION : 31
TOUR_SECTION
1
2
13
4
17
9
5
16
25
27
10
12
15
21
19
7
14
11
30
31
18
3
8
6
26
23
20
22
29
24
28
-1
EOF
